w = 30;

n = 28;

r2 = array1d(1..2, [9, 24]);

r3 = array1d(1..2, [9, 8]);

r4 = array1d(1..2, [9, 11]);

r5 = array1d(1..2, [9, 17]);

r6 = array1d(1..2, [4, 24]);

r7 = array1d(1..2, [4, 8]);

r8 = array1d(1..2, [1, 6]);

r9 = array1d(1..2, [1, 5]);

r10 = array1d(1..2, [4, 17]);

r11 = array1d(1..2, [3, 6]);

r12 = array1d(1..2, [3, 5]);

r13 = array1d(1..2, [12, 5]);

r14 = array1d(1..2, [12, 13]);

r15 = array1d(1..2, [14, 14]);

r16 = array1d(1..2, [2, 14]);

r17 = array1d(1..2, [2, 2]);

r18 = array1d(1..2, [8, 3]);

r19 = array1d(1..2, [8, 9]);

r20 = array1d(1..2, [12, 14]);

r21 = array1d(1..2, [12, 2]);

r22 = array1d(1..2, [6, 3]);

r23 = array1d(1..2, [6, 9]);

r24 = array1d(1..2, [2, 5]);

r25 = array1d(1..2, [2, 13]);

r26 = array1d(1..2, [3, 18]);

r27 = array1d(1..2, [3, 14]);

r28 = array1d(1..2, [3, 16]);

r29 = array1d(1..2, [3, 12]);

